p cnf 8 12
5 0
-1 5 0
1 -5 0
6 0
-2 6 0
2 -6 0
7 0
-3 7 0
3 -7 0
8 0
-4 8 0
4 -8 0
c p weight 1 1.0 0
c p weight -1 1.0 0
c p weight 2 1.0 0
c p weight -2 1.0 0
c p weight 3 1.0 0
c p weight -3 1.0 0
c p weight 4 1.0 0
c p weight -4 1.0 0
c p weight 5 1.0 0
c p weight -5 1.0 0
c p weight 6 1.0 0
c p weight -6 1.0 0
c p weight 7 1.0 0
c p weight -7 1.0 0
c p weight 8 1.0 0
c p weight -8 1.0 0
c p semirings aspmc.semirings.probabilistic 0
c p quantify 1 2 3 4 5 6 7 8 0
c p auxilliary 1 2 3 4 5 6 7 8 0
